\ This file has been generated by DOcplex
\ ENCODING=ISO-8859-1
\Problem name: boxes

Minimize
 obj: 16925 x_1_1 + 18545 x_1_2 + 15053 x_1_3 + 14425 x_2_1 + 15925 x_2_2
      + 12713 x_2_3 + 12125 x_3_1 + 13505 x_3_2 + 10573 x_3_3
Subject To
 c1: x_1_1 + x_1_2 + x_1_3 = 1
 c2: x_2_1 + x_2_2 + x_2_3 = 1
 c3: x_3_1 + x_3_2 + x_3_3 = 1
 c4: x_1_1 + x_2_1 + x_3_1 = 1
 c5: x_1_2 + x_2_2 + x_3_2 = 1
 c6: x_1_3 + x_2_3 + x_3_3 = 1

Bounds
 0 <= x_1_1 <= 1
 0 <= x_1_2 <= 1
 0 <= x_1_3 <= 1
 0 <= x_2_1 <= 1
 0 <= x_2_2 <= 1
 0 <= x_2_3 <= 1
 0 <= x_3_1 <= 1
 0 <= x_3_2 <= 1
 0 <= x_3_3 <= 1

Binaries
 x_1_1 x_1_2 x_1_3 x_2_1 x_2_2 x_2_3 x_3_1 x_3_2 x_3_3
End
